Maximize
 0
Subject To
 epc_0!1: -3.384541647008632 y_1!1_2!1 -58.63984324352931 y_1!2_2!1 +1.7286736395754048 y_1!3_2!1 +7.351617960289715 y_1!4_2!1 +48.855712411942335 y_1!1_2!2 +45.89496566193063 y_1!2_2!2 -18.86720246947324 y_1!3_2!2 +71.5557393642579 y_1!4_2!2 +11.975909541820258 y_1!1_2!3 +32.80598315376599 y_1!2_2!3 +65.16696059004329 y_1!3_2!3 +1.1155847635173473 y_1!4_2!3 +75.25490702422752 y_1!1_2!4 -23.782138892537375 y_1!2_2!4 +22.490556509832444 y_1!3_2!4 +6.7682537561579466 y_1!4_2!4 + lambda_0!1 - mu_0 = 0
 epc_0!2: -44.27183460973782 y_1!1_2!1 -15.613789344261633 y_1!2_2!1 -89.3995042980486 y_1!3_2!1 +45.30445835112812 y_1!4_2!1 +44.29439400954385 y_1!1_2!2 -96.66295717311569 y_1!2_2!2 -26.739034145319152 y_1!3_2!2 +32.86753603027833 y_1!4_2!2 +13.161221720389449 y_1!1_2!3 -84.18700178091802 y_1!2_2!3 +11.934768776529395 y_1!3_2!3 -55.84324849206064 y_1!4_2!3 +85.66383825258325 y_1!1_2!4 +34.26094121961941 y_1!2_2!4 +37.70154552854842 y_1!3_2!4 +58.42760369050248 y_1!4_2!4 + lambda_0!2 - mu_0 = 0
 epc_0!3: -31.771370027393658 y_1!1_2!1 +39.77768331684507 y_1!2_2!1 -46.13480049808969 y_1!3_2!1 +54.91305142291276 y_1!4_2!1 +5.609278094338393 y_1!1_2!2 -3.1245489610189026 y_1!2_2!2 +46.462631695770284 y_1!3_2!2 -41.17397748613109 y_1!4_2!2 +29.28009504159661 y_1!1_2!3 -70.46261270688272 y_1!2_2!3 +9.585854306614877 y_1!3_2!3 +92.46115623794248 y_1!4_2!3 -76.17816017609695 y_1!1_2!4 -32.66306290640043 y_1!2_2!4 +9.747040002356272 y_1!3_2!4 +56.06157214310136 y_1!4_2!4 + lambda_0!3 - mu_0 = 0
 epc_0!4: -54.31256074752666 y_1!1_2!1 -27.407097844680564 y_1!2_2!1 -54.484376459349605 y_1!3_2!1 -88.91623801559942 y_1!4_2!1 +15.824545437077859 y_1!1_2!2 -18.64882487193897 y_1!2_2!2 -40.45968964070159 y_1!3_2!2 +96.64912028751996 y_1!4_2!2 -37.1400769919374 y_1!1_2!3 -74.97049749042073 y_1!2_2!3 -44.54072943506555 y_1!3_2!3 +78.2915472013396 y_1!4_2!3 +57.67612865344191 y_1!1_2!4 +28.14066321866696 y_1!2_2!4 -42.36294246152612 y_1!3_2!4 -82.47445249179177 y_1!4_2!4 + lambda_0!4 - mu_0 = 0
 dc_0: x_0!1 + x_0!2 + x_0!3 + x_0!4 = 1
 bc_0!1: lambda_0!1 +295.36819893611414 x_0!1 <= 295.36819893611414
 bc_0!2: lambda_0!2 +295.36819893611414 x_0!2 <= 295.36819893611414
 bc_0!3: lambda_0!3 +295.36819893611414 x_0!3 <= 295.36819893611414
 bc_0!4: lambda_0!4 +295.36819893611414 x_0!4 <= 295.36819893611414
 sum_0!1: y_1!1_2!1 - x_1!1 - x_2!1 >= -1
 idk_0!1!1: y_1!1_2!1 - x_1!1 <= 0
 idk_0!1!2: y_1!1_2!1 - x_2!1 <= 0
 sum_0!2: y_1!2_2!1 - x_1!2 - x_2!1 >= -1
 idk_0!2!1: y_1!2_2!1 - x_1!2 <= 0
 idk_0!2!2: y_1!2_2!1 - x_2!1 <= 0
 sum_0!3: y_1!3_2!1 - x_1!3 - x_2!1 >= -1
 idk_0!3!1: y_1!3_2!1 - x_1!3 <= 0
 idk_0!3!2: y_1!3_2!1 - x_2!1 <= 0
 sum_0!4: y_1!4_2!1 - x_1!4 - x_2!1 >= -1
 idk_0!4!1: y_1!4_2!1 - x_1!4 <= 0
 idk_0!4!2: y_1!4_2!1 - x_2!1 <= 0
 sum_0!5: y_1!1_2!2 - x_1!1 - x_2!2 >= -1
 idk_0!5!1: y_1!1_2!2 - x_1!1 <= 0
 idk_0!5!2: y_1!1_2!2 - x_2!2 <= 0
 sum_0!6: y_1!2_2!2 - x_1!2 - x_2!2 >= -1
 idk_0!6!1: y_1!2_2!2 - x_1!2 <= 0
 idk_0!6!2: y_1!2_2!2 - x_2!2 <= 0
 sum_0!7: y_1!3_2!2 - x_1!3 - x_2!2 >= -1
 idk_0!7!1: y_1!3_2!2 - x_1!3 <= 0
 idk_0!7!2: y_1!3_2!2 - x_2!2 <= 0
 sum_0!8: y_1!4_2!2 - x_1!4 - x_2!2 >= -1
 idk_0!8!1: y_1!4_2!2 - x_1!4 <= 0
 idk_0!8!2: y_1!4_2!2 - x_2!2 <= 0
 sum_0!9: y_1!1_2!3 - x_1!1 - x_2!3 >= -1
 idk_0!9!1: y_1!1_2!3 - x_1!1 <= 0
 idk_0!9!2: y_1!1_2!3 - x_2!3 <= 0
 sum_0!10: y_1!2_2!3 - x_1!2 - x_2!3 >= -1
 idk_0!10!1: y_1!2_2!3 - x_1!2 <= 0
 idk_0!10!2: y_1!2_2!3 - x_2!3 <= 0
 sum_0!11: y_1!3_2!3 - x_1!3 - x_2!3 >= -1
 idk_0!11!1: y_1!3_2!3 - x_1!3 <= 0
 idk_0!11!2: y_1!3_2!3 - x_2!3 <= 0
 sum_0!12: y_1!4_2!3 - x_1!4 - x_2!3 >= -1
 idk_0!12!1: y_1!4_2!3 - x_1!4 <= 0
 idk_0!12!2: y_1!4_2!3 - x_2!3 <= 0
 sum_0!13: y_1!1_2!4 - x_1!1 - x_2!4 >= -1
 idk_0!13!1: y_1!1_2!4 - x_1!1 <= 0
 idk_0!13!2: y_1!1_2!4 - x_2!4 <= 0
 sum_0!14: y_1!2_2!4 - x_1!2 - x_2!4 >= -1
 idk_0!14!1: y_1!2_2!4 - x_1!2 <= 0
 idk_0!14!2: y_1!2_2!4 - x_2!4 <= 0
 sum_0!15: y_1!3_2!4 - x_1!3 - x_2!4 >= -1
 idk_0!15!1: y_1!3_2!4 - x_1!3 <= 0
 idk_0!15!2: y_1!3_2!4 - x_2!4 <= 0
 sum_0!16: y_1!4_2!4 - x_1!4 - x_2!4 >= -1
 idk_0!16!1: y_1!4_2!4 - x_1!4 <= 0
 idk_0!16!2: y_1!4_2!4 - x_2!4 <= 0
 epc_1!1: +62.018534328012976 y_0!1_2!1 +3.617749297953111 y_0!2_2!1 -69.02557479114458 y_0!3_2!1 -24.917319459819836 y_0!4_2!1 -90.61291516281962 y_0!1_2!2 -51.46357019040413 y_0!2_2!2 +0.021333863127438235 y_0!3_2!2 -84.14994071492727 y_0!4_2!2 +24.7947961270347 y_0!1_2!3 -78.89729744044868 y_0!2_2!3 +83.98374108568419 y_0!3_2!3 -33.23746470461484 y_0!4_2!3 -78.44409619036723 y_0!1_2!4 -86.49255272125936 y_0!2_2!4 -36.77039017705337 y_0!3_2!4 +21.25256627677811 y_0!4_2!4 + lambda_1!1 - mu_1 = 0
 epc_1!2: -41.26246664042495 y_0!1_2!1 +10.501315945485374 y_0!2_2!1 -58.3162013851769 y_0!3_2!1 +46.644318338852116 y_0!4_2!1 -42.85766550357604 y_0!1_2!2 -12.558169039205126 y_0!2_2!2 -58.13579156783493 y_0!3_2!2 +27.21464233447935 y_0!4_2!2 -8.20065746647154 y_0!1_2!3 -79.25961692937943 y_0!2_2!3 -25.315874286601698 y_0!3_2!3 -71.78376984207371 y_0!4_2!3 +65.06178379918003 y_0!1_2!4 -39.801369139006226 y_0!2_2!4 -98.95035214954748 y_0!3_2!4 +42.62021831883186 y_0!4_2!4 + lambda_1!2 - mu_1 = 0
 epc_1!3: +39.88982113247036 y_0!1_2!1 -21.58248091081778 y_0!2_2!1 -14.516981182655655 y_0!3_2!1 -7.534837726689588 y_0!4_2!1 -1.4309231530408084 y_0!1_2!2 -33.97917683181812 y_0!2_2!2 -94.75870695701319 y_0!3_2!2 +26.581747389799986 y_0!4_2!2 +24.37722606953092 y_0!1_2!3 +70.17041534752764 y_0!2_2!3 +26.655440617041364 y_0!3_2!3 +93.41050083474647 y_0!4_2!3 +29.757142527474883 y_0!1_2!4 -27.982042197049694 y_0!2_2!4 +27.33875408725362 y_0!3_2!4 +65.87160112220116 y_0!4_2!4 + lambda_1!3 - mu_1 = 0
 epc_1!4: -47.74310543925229 y_0!1_2!1 +1.4645954573343118 y_0!2_2!1 -23.883395646649205 y_0!3_2!1 +95.41747053369363 y_0!4_2!1 +7.432777351332049 y_0!1_2!2 +82.38093580149041 y_0!2_2!2 -58.822221589705535 y_0!3_2!2 +69.06356798123096 y_0!4_2!2 -18.137621891052277 y_0!1_2!3 -92.68343451586172 y_0!2_2!3 -43.73410183370587 y_0!3_2!3 -57.71553050522944 y_0!4_2!3 -99.95072840242054 y_0!1_2!4 +21.069508776434958 y_0!2_2!4 -33.029398658238776 y_0!3_2!4 -32.3408674701773 y_0!4_2!4 + lambda_1!4 - mu_1 = 0
 dc_1: x_1!1 + x_1!2 + x_1!3 + x_1!4 = 1
 bc_1!1: lambda_1!1 +295.36819893611414 x_1!1 <= 295.36819893611414
 bc_1!2: lambda_1!2 +295.36819893611414 x_1!2 <= 295.36819893611414
 bc_1!3: lambda_1!3 +295.36819893611414 x_1!3 <= 295.36819893611414
 bc_1!4: lambda_1!4 +295.36819893611414 x_1!4 <= 295.36819893611414
 sum_1!1: y_0!1_2!1 - x_0!1 - x_2!1 >= -1
 idk_1!1!0: y_0!1_2!1 - x_0!1 <= 0
 idk_1!1!2: y_0!1_2!1 - x_2!1 <= 0
 sum_1!2: y_0!2_2!1 - x_0!2 - x_2!1 >= -1
 idk_1!2!0: y_0!2_2!1 - x_0!2 <= 0
 idk_1!2!2: y_0!2_2!1 - x_2!1 <= 0
 sum_1!3: y_0!3_2!1 - x_0!3 - x_2!1 >= -1
 idk_1!3!0: y_0!3_2!1 - x_0!3 <= 0
 idk_1!3!2: y_0!3_2!1 - x_2!1 <= 0
 sum_1!4: y_0!4_2!1 - x_0!4 - x_2!1 >= -1
 idk_1!4!0: y_0!4_2!1 - x_0!4 <= 0
 idk_1!4!2: y_0!4_2!1 - x_2!1 <= 0
 sum_1!5: y_0!1_2!2 - x_0!1 - x_2!2 >= -1
 idk_1!5!0: y_0!1_2!2 - x_0!1 <= 0
 idk_1!5!2: y_0!1_2!2 - x_2!2 <= 0
 sum_1!6: y_0!2_2!2 - x_0!2 - x_2!2 >= -1
 idk_1!6!0: y_0!2_2!2 - x_0!2 <= 0
 idk_1!6!2: y_0!2_2!2 - x_2!2 <= 0
 sum_1!7: y_0!3_2!2 - x_0!3 - x_2!2 >= -1
 idk_1!7!0: y_0!3_2!2 - x_0!3 <= 0
 idk_1!7!2: y_0!3_2!2 - x_2!2 <= 0
 sum_1!8: y_0!4_2!2 - x_0!4 - x_2!2 >= -1
 idk_1!8!0: y_0!4_2!2 - x_0!4 <= 0
 idk_1!8!2: y_0!4_2!2 - x_2!2 <= 0
 sum_1!9: y_0!1_2!3 - x_0!1 - x_2!3 >= -1
 idk_1!9!0: y_0!1_2!3 - x_0!1 <= 0
 idk_1!9!2: y_0!1_2!3 - x_2!3 <= 0
 sum_1!10: y_0!2_2!3 - x_0!2 - x_2!3 >= -1
 idk_1!10!0: y_0!2_2!3 - x_0!2 <= 0
 idk_1!10!2: y_0!2_2!3 - x_2!3 <= 0
 sum_1!11: y_0!3_2!3 - x_0!3 - x_2!3 >= -1
 idk_1!11!0: y_0!3_2!3 - x_0!3 <= 0
 idk_1!11!2: y_0!3_2!3 - x_2!3 <= 0
 sum_1!12: y_0!4_2!3 - x_0!4 - x_2!3 >= -1
 idk_1!12!0: y_0!4_2!3 - x_0!4 <= 0
 idk_1!12!2: y_0!4_2!3 - x_2!3 <= 0
 sum_1!13: y_0!1_2!4 - x_0!1 - x_2!4 >= -1
 idk_1!13!0: y_0!1_2!4 - x_0!1 <= 0
 idk_1!13!2: y_0!1_2!4 - x_2!4 <= 0
 sum_1!14: y_0!2_2!4 - x_0!2 - x_2!4 >= -1
 idk_1!14!0: y_0!2_2!4 - x_0!2 <= 0
 idk_1!14!2: y_0!2_2!4 - x_2!4 <= 0
 sum_1!15: y_0!3_2!4 - x_0!3 - x_2!4 >= -1
 idk_1!15!0: y_0!3_2!4 - x_0!3 <= 0
 idk_1!15!2: y_0!3_2!4 - x_2!4 <= 0
 sum_1!16: y_0!4_2!4 - x_0!4 - x_2!4 >= -1
 idk_1!16!0: y_0!4_2!4 - x_0!4 <= 0
 idk_1!16!2: y_0!4_2!4 - x_2!4 <= 0
 epc_2!1: +57.85363055464424 y_0!1_1!1 +53.46798107384271 y_0!2_1!1 -86.82705525201644 y_0!3_1!1 +64.20041353232574 y_0!4_1!1 -72.51329805456628 y_0!1_1!2 +43.13388578964279 y_0!2_1!2 -87.45977260773039 y_0!3_1!2 -1.8492754724374691 y_0!4_1!2 +52.28099096712333 y_0!1_1!3 -52.24599585268539 y_0!2_1!3 -67.02238899371991 y_0!3_1!3 -64.87746175355772 y_0!4_1!3 -61.41417726823701 y_0!1_1!4 -71.48988552363242 y_0!2_1!4 +2.6976720938159957 y_0!3_1!4 +61.114525543970245 y_0!4_1!4 + lambda_2!1 - mu_2 = 0
 epc_2!2: -2.169190288986769 y_0!1_1!1 +76.66252513848403 y_0!2_1!1 +77.53503937655816 y_0!3_1!1 -82.02518940358027 y_0!4_1!1 -8.7714546534244 y_0!1_1!2 +53.79302588062836 y_0!2_1!2 +62.11439737899116 y_0!3_1!2 -89.85550373749997 y_0!4_1!2 +73.13390593496248 y_0!1_1!3 +29.341890066304074 y_0!2_1!3 -65.27422713476449 y_0!3_1!3 -7.9093916614195905 y_0!4_1!3 +23.09298912422686 y_0!1_1!4 -77.29181478911815 y_0!2_1!4 -37.47784854166893 y_0!3_1!4 -32.37645555957775 y_0!4_1!4 + lambda_2!2 - mu_2 = 0
 epc_2!3: +85.71619450746923 y_0!1_1!1 -46.528194442700844 y_0!2_1!1 +19.630925962609027 y_0!3_1!1 +50.45815309235937 y_0!4_1!1 -89.63849701472012 y_0!1_1!2 -6.665438420141527 y_0!2_1!2 -9.502649318707284 y_0!3_1!2 -52.708359974808225 y_0!4_1!2 -0.784378104400858 y_0!1_1!3 -2.833149044424374 y_0!2_1!3 -45.74540648254606 y_0!3_1!3 -69.66444898773175 y_0!4_1!3 +32.71223700735456 y_0!1_1!4 +68.08543771902069 y_0!2_1!4 -96.85825812616955 y_0!3_1!4 -34.34686830927393 y_0!4_1!4 + lambda_2!3 - mu_2 = 0
 epc_2!4: +45.32805795646391 y_0!1_1!1 +82.77693433759063 y_0!2_1!1 -51.03256341598983 y_0!3_1!1 -43.182498851637654 y_0!4_1!1 +72.64909270304685 y_0!1_1!2 +68.32064676431386 y_0!2_1!2 -83.65637495227503 y_0!3_1!2 -49.679979555461706 y_0!4_1!2 -17.799025484815928 y_0!1_1!3 +80.55349918414788 y_0!2_1!3 -90.10976691202306 y_0!3_1!3 -70.17759607186129 y_0!4_1!3 -64.11118827440163 y_0!1_1!4 -13.441113386204151 y_0!2_1!4 +74.83838297756378 y_0!3_1!4 +0.7601019251164587 y_0!4_1!4 + lambda_2!4 - mu_2 = 0
 dc_2: x_2!1 + x_2!2 + x_2!3 + x_2!4 = 1
 bc_2!1: lambda_2!1 +295.36819893611414 x_2!1 <= 295.36819893611414
 bc_2!2: lambda_2!2 +295.36819893611414 x_2!2 <= 295.36819893611414
 bc_2!3: lambda_2!3 +295.36819893611414 x_2!3 <= 295.36819893611414
 bc_2!4: lambda_2!4 +295.36819893611414 x_2!4 <= 295.36819893611414
 sum_2!1: y_0!1_1!1 - x_0!1 - x_1!1 >= -1
 idk_2!1!0: y_0!1_1!1 - x_0!1 <= 0
 idk_2!1!1: y_0!1_1!1 - x_1!1 <= 0
 sum_2!2: y_0!2_1!1 - x_0!2 - x_1!1 >= -1
 idk_2!2!0: y_0!2_1!1 - x_0!2 <= 0
 idk_2!2!1: y_0!2_1!1 - x_1!1 <= 0
 sum_2!3: y_0!3_1!1 - x_0!3 - x_1!1 >= -1
 idk_2!3!0: y_0!3_1!1 - x_0!3 <= 0
 idk_2!3!1: y_0!3_1!1 - x_1!1 <= 0
 sum_2!4: y_0!4_1!1 - x_0!4 - x_1!1 >= -1
 idk_2!4!0: y_0!4_1!1 - x_0!4 <= 0
 idk_2!4!1: y_0!4_1!1 - x_1!1 <= 0
 sum_2!5: y_0!1_1!2 - x_0!1 - x_1!2 >= -1
 idk_2!5!0: y_0!1_1!2 - x_0!1 <= 0
 idk_2!5!1: y_0!1_1!2 - x_1!2 <= 0
 sum_2!6: y_0!2_1!2 - x_0!2 - x_1!2 >= -1
 idk_2!6!0: y_0!2_1!2 - x_0!2 <= 0
 idk_2!6!1: y_0!2_1!2 - x_1!2 <= 0
 sum_2!7: y_0!3_1!2 - x_0!3 - x_1!2 >= -1
 idk_2!7!0: y_0!3_1!2 - x_0!3 <= 0
 idk_2!7!1: y_0!3_1!2 - x_1!2 <= 0
 sum_2!8: y_0!4_1!2 - x_0!4 - x_1!2 >= -1
 idk_2!8!0: y_0!4_1!2 - x_0!4 <= 0
 idk_2!8!1: y_0!4_1!2 - x_1!2 <= 0
 sum_2!9: y_0!1_1!3 - x_0!1 - x_1!3 >= -1
 idk_2!9!0: y_0!1_1!3 - x_0!1 <= 0
 idk_2!9!1: y_0!1_1!3 - x_1!3 <= 0
 sum_2!10: y_0!2_1!3 - x_0!2 - x_1!3 >= -1
 idk_2!10!0: y_0!2_1!3 - x_0!2 <= 0
 idk_2!10!1: y_0!2_1!3 - x_1!3 <= 0
 sum_2!11: y_0!3_1!3 - x_0!3 - x_1!3 >= -1
 idk_2!11!0: y_0!3_1!3 - x_0!3 <= 0
 idk_2!11!1: y_0!3_1!3 - x_1!3 <= 0
 sum_2!12: y_0!4_1!3 - x_0!4 - x_1!3 >= -1
 idk_2!12!0: y_0!4_1!3 - x_0!4 <= 0
 idk_2!12!1: y_0!4_1!3 - x_1!3 <= 0
 sum_2!13: y_0!1_1!4 - x_0!1 - x_1!4 >= -1
 idk_2!13!0: y_0!1_1!4 - x_0!1 <= 0
 idk_2!13!1: y_0!1_1!4 - x_1!4 <= 0
 sum_2!14: y_0!2_1!4 - x_0!2 - x_1!4 >= -1
 idk_2!14!0: y_0!2_1!4 - x_0!2 <= 0
 idk_2!14!1: y_0!2_1!4 - x_1!4 <= 0
 sum_2!15: y_0!3_1!4 - x_0!3 - x_1!4 >= -1
 idk_2!15!0: y_0!3_1!4 - x_0!3 <= 0
 idk_2!15!1: y_0!3_1!4 - x_1!4 <= 0
 sum_2!16: y_0!4_1!4 - x_0!4 - x_1!4 >= -1
 idk_2!16!0: y_0!4_1!4 - x_0!4 <= 0
 idk_2!16!1: y_0!4_1!4 - x_1!4 <= 0
Bounds
 mu_0 free
 mu_1 free
 mu_2 free
Binary
 x_0!1 x_0!2 x_0!3 x_0!4 x_1!1 x_1!2 x_1!3 x_1!4 x_2!1 x_2!2 x_2!3 x_2!4
End
